\* Two-Stage_Problem *\
Maximize
OBJ: - 50 Energy_bought - 300 s_hour_scen0_0_0_18 - 600 s_hour_scen0_0_0_19
 - 600 s_hour_scen0_0_0_20 - 600 s_hour_scen0_0_0_21 - 600 s_hour_scen0_0_0_22
 - 75 s_hour_scen0_0_1_16 - 150 s_hour_scen0_0_1_17 - 225 s_hour_scen0_0_1_18
 - 300 s_hour_scen0_0_1_19 - 300 s_hour_scen0_0_1_20 - 150 s_hour_scen0_1_2_15
 - 300 s_hour_scen0_1_2_16 - 450 s_hour_scen0_1_2_17 - 600 s_hour_scen0_1_2_18
 - 750 s_hour_scen0_1_2_19 - 225 s_hour_scen0_1_3_17 - 450 s_hour_scen0_1_3_18
 - 675 s_hour_scen0_1_3_19 - 675 s_hour_scen0_1_3_20 - 675 s_hour_scen0_1_3_21
 - 150 s_hour_scen0_2_2_15 - 300 s_hour_scen0_2_2_16 - 450 s_hour_scen0_2_2_17
 - 600 s_hour_scen0_2_2_18 - 750 s_hour_scen0_2_2_19 - 225 s_hour_scen0_2_3_17
 - 450 s_hour_scen0_2_3_18 - 675 s_hour_scen0_2_3_19 - 675 s_hour_scen0_2_3_20
 - 675 s_hour_scen0_2_3_21 - 1400 s_hour_scen1_0_0_00
 - 1400 s_hour_scen1_0_0_01 - 1400 s_hour_scen1_0_0_02
 - 1400 s_hour_scen1_0_0_03 - 1400 s_hour_scen1_0_0_04
 - 1400 s_hour_scen1_0_0_05 - 1400 s_hour_scen1_0_0_06
 - 1400 s_hour_scen1_0_0_07 - 1400 s_hour_scen1_0_0_08
 - 1400 s_hour_scen1_0_0_09 - 1400 s_hour_scen1_0_0_10
 - 1400 s_hour_scen1_0_0_11 - 1400 s_hour_scen1_0_0_12
 - 1400 s_hour_scen1_0_0_13 - 1400 s_hour_scen1_0_0_14
 - 1400 s_hour_scen1_0_0_15 - 1400 s_hour_scen1_0_0_16
 - 1400 s_hour_scen1_0_0_17 - 700 s_hour_scen1_0_0_18
 - 700 s_hour_scen1_0_1_00 - 700 s_hour_scen1_0_1_01 - 700 s_hour_scen1_0_1_02
 - 700 s_hour_scen1_0_1_03 - 700 s_hour_scen1_0_1_04 - 700 s_hour_scen1_0_1_05
 - 700 s_hour_scen1_0_1_06 - 700 s_hour_scen1_0_1_07 - 700 s_hour_scen1_0_1_08
 - 700 s_hour_scen1_0_1_09 - 700 s_hour_scen1_0_1_10 - 700 s_hour_scen1_0_1_11
 - 700 s_hour_scen1_0_1_12 - 700 s_hour_scen1_0_1_13 - 700 s_hour_scen1_0_1_14
 - 700 s_hour_scen1_0_1_15 - 525 s_hour_scen1_0_1_16 - 350 s_hour_scen1_0_1_17
 - 175 s_hour_scen1_0_1_18 - 1750 s_hour_scen1_1_2_00
 - 1750 s_hour_scen1_1_2_01 - 1750 s_hour_scen1_1_2_02
 - 1750 s_hour_scen1_1_2_03 - 1750 s_hour_scen1_1_2_04
 - 1750 s_hour_scen1_1_2_05 - 1750 s_hour_scen1_1_2_06
 - 1750 s_hour_scen1_1_2_07 - 1750 s_hour_scen1_1_2_08
 - 1750 s_hour_scen1_1_2_09 - 1750 s_hour_scen1_1_2_10
 - 1750 s_hour_scen1_1_2_11 - 1750 s_hour_scen1_1_2_12
 - 1750 s_hour_scen1_1_2_13 - 1750 s_hour_scen1_1_2_14
 - 1400 s_hour_scen1_1_2_15 - 1050 s_hour_scen1_1_2_16
 - 700 s_hour_scen1_1_2_17 - 350 s_hour_scen1_1_2_18
 - 1575 s_hour_scen1_1_3_00 - 1575 s_hour_scen1_1_3_01
 - 1575 s_hour_scen1_1_3_02 - 1575 s_hour_scen1_1_3_03
 - 1575 s_hour_scen1_1_3_04 - 1575 s_hour_scen1_1_3_05
 - 1575 s_hour_scen1_1_3_06 - 1575 s_hour_scen1_1_3_07
 - 1575 s_hour_scen1_1_3_08 - 1575 s_hour_scen1_1_3_09
 - 1575 s_hour_scen1_1_3_10 - 1575 s_hour_scen1_1_3_11
 - 1575 s_hour_scen1_1_3_12 - 1575 s_hour_scen1_1_3_13
 - 1575 s_hour_scen1_1_3_14 - 1575 s_hour_scen1_1_3_15
 - 1575 s_hour_scen1_1_3_16 - 1050 s_hour_scen1_1_3_17
 - 525 s_hour_scen1_1_3_18 - 1750 s_hour_scen1_2_2_00
 - 1750 s_hour_scen1_2_2_01 - 1750 s_hour_scen1_2_2_02
 - 1750 s_hour_scen1_2_2_03 - 1750 s_hour_scen1_2_2_04
 - 1750 s_hour_scen1_2_2_05 - 1750 s_hour_scen1_2_2_06
 - 1750 s_hour_scen1_2_2_07 - 1750 s_hour_scen1_2_2_08
 - 1750 s_hour_scen1_2_2_09 - 1750 s_hour_scen1_2_2_10
 - 1750 s_hour_scen1_2_2_11 - 1750 s_hour_scen1_2_2_12
 - 1750 s_hour_scen1_2_2_13 - 1750 s_hour_scen1_2_2_14
 - 1400 s_hour_scen1_2_2_15 - 1050 s_hour_scen1_2_2_16
 - 700 s_hour_scen1_2_2_17 - 350 s_hour_scen1_2_2_18
 - 1575 s_hour_scen1_2_3_00 - 1575 s_hour_scen1_2_3_01
 - 1575 s_hour_scen1_2_3_02 - 1575 s_hour_scen1_2_3_03
 - 1575 s_hour_scen1_2_3_04 - 1575 s_hour_scen1_2_3_05
 - 1575 s_hour_scen1_2_3_06 - 1575 s_hour_scen1_2_3_07
 - 1575 s_hour_scen1_2_3_08 - 1575 s_hour_scen1_2_3_09
 - 1575 s_hour_scen1_2_3_10 - 1575 s_hour_scen1_2_3_11
 - 1575 s_hour_scen1_2_3_12 - 1575 s_hour_scen1_2_3_13
 - 1575 s_hour_scen1_2_3_14 - 1575 s_hour_scen1_2_3_15
 - 1575 s_hour_scen1_2_3_16 - 1050 s_hour_scen1_2_3_17
 - 525 s_hour_scen1_2_3_18 + 1200 x_(0,_0,_0) + 600 x_(0,_0,_1)
 + 1500 x_(0,_1,_2) + 1350 x_(0,_1,_3) + 1500 x_(0,_2,_2) + 1350 x_(0,_2,_3)
 + 2800 x_(1,_0,_0) + 1400 x_(1,_0,_1) + 3500 x_(1,_1,_2) + 3150 x_(1,_1,_3)
 + 3500 x_(1,_2,_2) + 3150 x_(1,_2,_3)
Subject To
Big_M_constraint_1_for_order_0_0_1_scen0: - 1000 p_(0,_0,_0,_1) + x_(0,_0,_0)
 + x_(0,_0,_1) <= 1
Big_M_constraint_1_for_order_0_0_1_scen1: - 1000 p_(1,_0,_0,_1) + x_(1,_0,_0)
 + x_(1,_0,_1) <= 1
Big_M_constraint_1_for_order_0_1_0_scen0: - 1000 p_(0,_0,_1,_0) + x_(0,_0,_0)
 + x_(0,_0,_1) <= 1
Big_M_constraint_1_for_order_0_1_0_scen1: - 1000 p_(1,_0,_1,_0) + x_(1,_0,_0)
 + x_(1,_0,_1) <= 1
Big_M_constraint_1_for_order_1_2_3_scen0: - 1000 p_(0,_1,_2,_3) + x_(0,_1,_2)
 + x_(0,_1,_3) <= 1
Big_M_constraint_1_for_order_1_2_3_scen1: - 1000 p_(1,_1,_2,_3) + x_(1,_1,_2)
 + x_(1,_1,_3) <= 1
Big_M_constraint_1_for_order_1_3_2_scen0: - 1000 p_(0,_1,_3,_2) + x_(0,_1,_2)
 + x_(0,_1,_3) <= 1
Big_M_constraint_1_for_order_1_3_2_scen1: - 1000 p_(1,_1,_3,_2) + x_(1,_1,_2)
 + x_(1,_1,_3) <= 1
Big_M_constraint_1_for_order_2_2_3_scen0: - 1000 p_(0,_2,_2,_3) + x_(0,_2,_2)
 + x_(0,_2,_3) <= 1
Big_M_constraint_1_for_order_2_2_3_scen1: - 1000 p_(1,_2,_2,_3) + x_(1,_2,_2)
 + x_(1,_2,_3) <= 1
Big_M_constraint_1_for_order_2_3_2_scen0: - 1000 p_(0,_2,_3,_2) + x_(0,_2,_2)
 + x_(0,_2,_3) <= 1
Big_M_constraint_1_for_order_2_3_2_scen1: - 1000 p_(1,_2,_3,_2) + x_(1,_2,_2)
 + x_(1,_2,_3) <= 1
Big_M_constraint_2_for_order_0_0_1_scen0: 1000 p_(0,_0,_0,_1) - x_(0,_0,_0)
 - x_(0,_0,_1) <= 998
Big_M_constraint_2_for_order_0_0_1_scen1: 1000 p_(1,_0,_0,_1) - x_(1,_0,_0)
 - x_(1,_0,_1) <= 998
Big_M_constraint_2_for_order_0_1_0_scen0: 1000 p_(0,_0,_1,_0) - x_(0,_0,_0)
 - x_(0,_0,_1) <= 998
Big_M_constraint_2_for_order_0_1_0_scen1: 1000 p_(1,_0,_1,_0) - x_(1,_0,_0)
 - x_(1,_0,_1) <= 998
Big_M_constraint_2_for_order_1_2_3_scen0: 1000 p_(0,_1,_2,_3) - x_(0,_1,_2)
 - x_(0,_1,_3) <= 998
Big_M_constraint_2_for_order_1_2_3_scen1: 1000 p_(1,_1,_2,_3) - x_(1,_1,_2)
 - x_(1,_1,_3) <= 998
Big_M_constraint_2_for_order_1_3_2_scen0: 1000 p_(0,_1,_3,_2) - x_(0,_1,_2)
 - x_(0,_1,_3) <= 998
Big_M_constraint_2_for_order_1_3_2_scen1: 1000 p_(1,_1,_3,_2) - x_(1,_1,_2)
 - x_(1,_1,_3) <= 998
Big_M_constraint_2_for_order_2_2_3_scen0: 1000 p_(0,_2,_2,_3) - x_(0,_2,_2)
 - x_(0,_2,_3) <= 998
Big_M_constraint_2_for_order_2_2_3_scen1: 1000 p_(1,_2,_2,_3) - x_(1,_2,_2)
 - x_(1,_2,_3) <= 998
Big_M_constraint_2_for_order_2_3_2_scen0: 1000 p_(0,_2,_3,_2) - x_(0,_2,_2)
 - x_(0,_2,_3) <= 998
Big_M_constraint_2_for_order_2_3_2_scen1: 1000 p_(1,_2,_3,_2) - x_(1,_2,_2)
 - x_(1,_2,_3) <= 998
Big_M_constraint_5_for_order_0_0_1_scen0: 1000 p_(0,_0,_0,_1)
 + 1000 q_(0,_0,_0,_1) + startingtime_(0,_0) - startingtime_(0,_1) <= 1998
Big_M_constraint_5_for_order_0_0_1_scen1: 1000 p_(1,_0,_0,_1)
 + 1000 q_(1,_0,_0,_1) + startingtime_(1,_0) - startingtime_(1,_1) <= 1998
Big_M_constraint_5_for_order_0_1_0_scen0: 1000 p_(0,_0,_1,_0)
 + 1000 q_(0,_0,_1,_0) - startingtime_(0,_0) + startingtime_(0,_1) <= 1996
Big_M_constraint_5_for_order_0_1_0_scen1: 1000 p_(1,_0,_1,_0)
 + 1000 q_(1,_0,_1,_0) - startingtime_(1,_0) + startingtime_(1,_1) <= 1996
Big_M_constraint_5_for_order_1_2_3_scen0: 1000 p_(0,_1,_2,_3)
 + 1000 q_(0,_1,_2,_3) + startingtime_(0,_2) - startingtime_(0,_3) <= 1995
Big_M_constraint_5_for_order_1_2_3_scen1: 1000 p_(1,_1,_2,_3)
 + 1000 q_(1,_1,_2,_3) + startingtime_(1,_2) - startingtime_(1,_3) <= 1995
Big_M_constraint_5_for_order_1_3_2_scen0: 1000 p_(0,_1,_3,_2)
 + 1000 q_(0,_1,_3,_2) - startingtime_(0,_2) + startingtime_(0,_3) <= 1997
Big_M_constraint_5_for_order_1_3_2_scen1: 1000 p_(1,_1,_3,_2)
 + 1000 q_(1,_1,_3,_2) - startingtime_(1,_2) + startingtime_(1,_3) <= 1997
Big_M_constraint_5_for_order_2_2_3_scen0: 1000 p_(0,_2,_2,_3)
 + 1000 q_(0,_2,_2,_3) + startingtime_(0,_2) - startingtime_(0,_3) <= 1995
Big_M_constraint_5_for_order_2_2_3_scen1: 1000 p_(1,_2,_2,_3)
 + 1000 q_(1,_2,_2,_3) + startingtime_(1,_2) - startingtime_(1,_3) <= 1995
Big_M_constraint_5_for_order_2_3_2_scen0: 1000 p_(0,_2,_3,_2)
 + 1000 q_(0,_2,_3,_2) - startingtime_(0,_2) + startingtime_(0,_3) <= 1997
Big_M_constraint_5_for_order_2_3_2_scen1: 1000 p_(1,_2,_3,_2)
 + 1000 q_(1,_2,_3,_2) - startingtime_(1,_2) + startingtime_(1,_3) <= 1997
Big_M_constraint_6_for_order_0_0_1_scen0: 1000 p_(0,_0,_0,_1)
 - 1000 q_(0,_0,_0,_1) - startingtime_(0,_0) + startingtime_(0,_1) <= 996
Big_M_constraint_6_for_order_0_0_1_scen1: 1000 p_(1,_0,_0,_1)
 - 1000 q_(1,_0,_0,_1) - startingtime_(1,_0) + startingtime_(1,_1) <= 996
Big_M_constraint_6_for_order_0_1_0_scen0: 1000 p_(0,_0,_1,_0)
 - 1000 q_(0,_0,_1,_0) + startingtime_(0,_0) - startingtime_(0,_1) <= 998
Big_M_constraint_6_for_order_0_1_0_scen1: 1000 p_(1,_0,_1,_0)
 - 1000 q_(1,_0,_1,_0) + startingtime_(1,_0) - startingtime_(1,_1) <= 998
Big_M_constraint_6_for_order_1_2_3_scen0: 1000 p_(0,_1,_2,_3)
 - 1000 q_(0,_1,_2,_3) - startingtime_(0,_2) + startingtime_(0,_3) <= 997
Big_M_constraint_6_for_order_1_2_3_scen1: 1000 p_(1,_1,_2,_3)
 - 1000 q_(1,_1,_2,_3) - startingtime_(1,_2) + startingtime_(1,_3) <= 997
Big_M_constraint_6_for_order_1_3_2_scen0: 1000 p_(0,_1,_3,_2)
 - 1000 q_(0,_1,_3,_2) + startingtime_(0,_2) - startingtime_(0,_3) <= 995
Big_M_constraint_6_for_order_1_3_2_scen1: 1000 p_(1,_1,_3,_2)
 - 1000 q_(1,_1,_3,_2) + startingtime_(1,_2) - startingtime_(1,_3) <= 995
Big_M_constraint_6_for_order_2_2_3_scen0: 1000 p_(0,_2,_2,_3)
 - 1000 q_(0,_2,_2,_3) - startingtime_(0,_2) + startingtime_(0,_3) <= 997
Big_M_constraint_6_for_order_2_2_3_scen1: 1000 p_(1,_2,_2,_3)
 - 1000 q_(1,_2,_2,_3) - startingtime_(1,_2) + startingtime_(1,_3) <= 997
Big_M_constraint_6_for_order_2_3_2_scen0: 1000 p_(0,_2,_3,_2)
 - 1000 q_(0,_2,_3,_2) + startingtime_(0,_2) - startingtime_(0,_3) <= 995
Big_M_constraint_6_for_order_2_3_2_scen1: 1000 p_(1,_2,_3,_2)
 - 1000 q_(1,_2,_3,_2) + startingtime_(1,_2) - startingtime_(1,_3) <= 995
Energy_Sufficiency_Scenario_0: - Energy_bought + 8 x_(0,_0,_0) + 4 x_(0,_0,_1)
 + 10 x_(0,_1,_2) + 9 x_(0,_1,_3) + 10 x_(0,_2,_2) + 9 x_(0,_2,_3) <= 0
Energy_Sufficiency_Scenario_1: - Energy_bought + 8 x_(1,_0,_0) + 4 x_(1,_0,_1)
 + 10 x_(1,_1,_2) + 9 x_(1,_1,_3) + 10 x_(1,_2,_2) + 9 x_(1,_2,_3) <= 0
calculate_start_time_for_order_0_scen0: - s_hour_scen0_0_0_01
 - 2 s_hour_scen0_0_0_02 - 3 s_hour_scen0_0_0_03 - 4 s_hour_scen0_0_0_04
 - 5 s_hour_scen0_0_0_05 - 6 s_hour_scen0_0_0_06 - 7 s_hour_scen0_0_0_07
 - 8 s_hour_scen0_0_0_08 - 9 s_hour_scen0_0_0_09 - 10 s_hour_scen0_0_0_10
 - 11 s_hour_scen0_0_0_11 - 12 s_hour_scen0_0_0_12 - 13 s_hour_scen0_0_0_13
 - 14 s_hour_scen0_0_0_14 - 15 s_hour_scen0_0_0_15 - 16 s_hour_scen0_0_0_16
 - 17 s_hour_scen0_0_0_17 - 18 s_hour_scen0_0_0_18 - 19 s_hour_scen0_0_0_19
 - 20 s_hour_scen0_0_0_20 - 21 s_hour_scen0_0_0_21 - 22 s_hour_scen0_0_0_22
 + startingtime_(0,_0) = 0
calculate_start_time_for_order_0_scen1: - s_hour_scen1_0_0_01
 - 2 s_hour_scen1_0_0_02 - 3 s_hour_scen1_0_0_03 - 4 s_hour_scen1_0_0_04
 - 5 s_hour_scen1_0_0_05 - 6 s_hour_scen1_0_0_06 - 7 s_hour_scen1_0_0_07
 - 8 s_hour_scen1_0_0_08 - 9 s_hour_scen1_0_0_09 - 10 s_hour_scen1_0_0_10
 - 11 s_hour_scen1_0_0_11 - 12 s_hour_scen1_0_0_12 - 13 s_hour_scen1_0_0_13
 - 14 s_hour_scen1_0_0_14 - 15 s_hour_scen1_0_0_15 - 16 s_hour_scen1_0_0_16
 - 17 s_hour_scen1_0_0_17 - 18 s_hour_scen1_0_0_18 - 19 s_hour_scen1_0_0_19
 - 20 s_hour_scen1_0_0_20 - 21 s_hour_scen1_0_0_21 - 22 s_hour_scen1_0_0_22
 + startingtime_(1,_0) = 0
calculate_start_time_for_order_1_scen0: - s_hour_scen0_0_1_01
 - 2 s_hour_scen0_0_1_02 - 3 s_hour_scen0_0_1_03 - 4 s_hour_scen0_0_1_04
 - 5 s_hour_scen0_0_1_05 - 6 s_hour_scen0_0_1_06 - 7 s_hour_scen0_0_1_07
 - 8 s_hour_scen0_0_1_08 - 9 s_hour_scen0_0_1_09 - 10 s_hour_scen0_0_1_10
 - 11 s_hour_scen0_0_1_11 - 12 s_hour_scen0_0_1_12 - 13 s_hour_scen0_0_1_13
 - 14 s_hour_scen0_0_1_14 - 15 s_hour_scen0_0_1_15 - 16 s_hour_scen0_0_1_16
 - 17 s_hour_scen0_0_1_17 - 18 s_hour_scen0_0_1_18 - 19 s_hour_scen0_0_1_19
 - 20 s_hour_scen0_0_1_20 + startingtime_(0,_1) = 0
calculate_start_time_for_order_1_scen1: - s_hour_scen1_0_1_01
 - 2 s_hour_scen1_0_1_02 - 3 s_hour_scen1_0_1_03 - 4 s_hour_scen1_0_1_04
 - 5 s_hour_scen1_0_1_05 - 6 s_hour_scen1_0_1_06 - 7 s_hour_scen1_0_1_07
 - 8 s_hour_scen1_0_1_08 - 9 s_hour_scen1_0_1_09 - 10 s_hour_scen1_0_1_10
 - 11 s_hour_scen1_0_1_11 - 12 s_hour_scen1_0_1_12 - 13 s_hour_scen1_0_1_13
 - 14 s_hour_scen1_0_1_14 - 15 s_hour_scen1_0_1_15 - 16 s_hour_scen1_0_1_16
 - 17 s_hour_scen1_0_1_17 - 18 s_hour_scen1_0_1_18 - 19 s_hour_scen1_0_1_19
 - 20 s_hour_scen1_0_1_20 + startingtime_(1,_1) = 0
calculate_start_time_for_order_2_scen0: - s_hour_scen0_1_2_01
 - 2 s_hour_scen0_1_2_02 - 3 s_hour_scen0_1_2_03 - 4 s_hour_scen0_1_2_04
 - 5 s_hour_scen0_1_2_05 - 6 s_hour_scen0_1_2_06 - 7 s_hour_scen0_1_2_07
 - 8 s_hour_scen0_1_2_08 - 9 s_hour_scen0_1_2_09 - 10 s_hour_scen0_1_2_10
 - 11 s_hour_scen0_1_2_11 - 12 s_hour_scen0_1_2_12 - 13 s_hour_scen0_1_2_13
 - 14 s_hour_scen0_1_2_14 - 15 s_hour_scen0_1_2_15 - 16 s_hour_scen0_1_2_16
 - 17 s_hour_scen0_1_2_17 - 18 s_hour_scen0_1_2_18 - 19 s_hour_scen0_1_2_19
 - s_hour_scen0_2_2_01 - 2 s_hour_scen0_2_2_02 - 3 s_hour_scen0_2_2_03
 - 4 s_hour_scen0_2_2_04 - 5 s_hour_scen0_2_2_05 - 6 s_hour_scen0_2_2_06
 - 7 s_hour_scen0_2_2_07 - 8 s_hour_scen0_2_2_08 - 9 s_hour_scen0_2_2_09
 - 10 s_hour_scen0_2_2_10 - 11 s_hour_scen0_2_2_11 - 12 s_hour_scen0_2_2_12
 - 13 s_hour_scen0_2_2_13 - 14 s_hour_scen0_2_2_14 - 15 s_hour_scen0_2_2_15
 - 16 s_hour_scen0_2_2_16 - 17 s_hour_scen0_2_2_17 - 18 s_hour_scen0_2_2_18
 - 19 s_hour_scen0_2_2_19 + startingtime_(0,_2) = 0
calculate_start_time_for_order_2_scen1: - s_hour_scen1_1_2_01
 - 2 s_hour_scen1_1_2_02 - 3 s_hour_scen1_1_2_03 - 4 s_hour_scen1_1_2_04
 - 5 s_hour_scen1_1_2_05 - 6 s_hour_scen1_1_2_06 - 7 s_hour_scen1_1_2_07
 - 8 s_hour_scen1_1_2_08 - 9 s_hour_scen1_1_2_09 - 10 s_hour_scen1_1_2_10
 - 11 s_hour_scen1_1_2_11 - 12 s_hour_scen1_1_2_12 - 13 s_hour_scen1_1_2_13
 - 14 s_hour_scen1_1_2_14 - 15 s_hour_scen1_1_2_15 - 16 s_hour_scen1_1_2_16
 - 17 s_hour_scen1_1_2_17 - 18 s_hour_scen1_1_2_18 - 19 s_hour_scen1_1_2_19
 - s_hour_scen1_2_2_01 - 2 s_hour_scen1_2_2_02 - 3 s_hour_scen1_2_2_03
 - 4 s_hour_scen1_2_2_04 - 5 s_hour_scen1_2_2_05 - 6 s_hour_scen1_2_2_06
 - 7 s_hour_scen1_2_2_07 - 8 s_hour_scen1_2_2_08 - 9 s_hour_scen1_2_2_09
 - 10 s_hour_scen1_2_2_10 - 11 s_hour_scen1_2_2_11 - 12 s_hour_scen1_2_2_12
 - 13 s_hour_scen1_2_2_13 - 14 s_hour_scen1_2_2_14 - 15 s_hour_scen1_2_2_15
 - 16 s_hour_scen1_2_2_16 - 17 s_hour_scen1_2_2_17 - 18 s_hour_scen1_2_2_18
 - 19 s_hour_scen1_2_2_19 + startingtime_(1,_2) = 0
calculate_start_time_for_order_3_scen0: - s_hour_scen0_1_3_01
 - 2 s_hour_scen0_1_3_02 - 3 s_hour_scen0_1_3_03 - 4 s_hour_scen0_1_3_04
 - 5 s_hour_scen0_1_3_05 - 6 s_hour_scen0_1_3_06 - 7 s_hour_scen0_1_3_07
 - 8 s_hour_scen0_1_3_08 - 9 s_hour_scen0_1_3_09 - 10 s_hour_scen0_1_3_10
 - 11 s_hour_scen0_1_3_11 - 12 s_hour_scen0_1_3_12 - 13 s_hour_scen0_1_3_13
 - 14 s_hour_scen0_1_3_14 - 15 s_hour_scen0_1_3_15 - 16 s_hour_scen0_1_3_16
 - 17 s_hour_scen0_1_3_17 - 18 s_hour_scen0_1_3_18 - 19 s_hour_scen0_1_3_19
 - 20 s_hour_scen0_1_3_20 - 21 s_hour_scen0_1_3_21 - s_hour_scen0_2_3_01
 - 2 s_hour_scen0_2_3_02 - 3 s_hour_scen0_2_3_03 - 4 s_hour_scen0_2_3_04
 - 5 s_hour_scen0_2_3_05 - 6 s_hour_scen0_2_3_06 - 7 s_hour_scen0_2_3_07
 - 8 s_hour_scen0_2_3_08 - 9 s_hour_scen0_2_3_09 - 10 s_hour_scen0_2_3_10
 - 11 s_hour_scen0_2_3_11 - 12 s_hour_scen0_2_3_12 - 13 s_hour_scen0_2_3_13
 - 14 s_hour_scen0_2_3_14 - 15 s_hour_scen0_2_3_15 - 16 s_hour_scen0_2_3_16
 - 17 s_hour_scen0_2_3_17 - 18 s_hour_scen0_2_3_18 - 19 s_hour_scen0_2_3_19
 - 20 s_hour_scen0_2_3_20 - 21 s_hour_scen0_2_3_21 + startingtime_(0,_3) = 0
calculate_start_time_for_order_3_scen1: - s_hour_scen1_1_3_01
 - 2 s_hour_scen1_1_3_02 - 3 s_hour_scen1_1_3_03 - 4 s_hour_scen1_1_3_04
 - 5 s_hour_scen1_1_3_05 - 6 s_hour_scen1_1_3_06 - 7 s_hour_scen1_1_3_07
 - 8 s_hour_scen1_1_3_08 - 9 s_hour_scen1_1_3_09 - 10 s_hour_scen1_1_3_10
 - 11 s_hour_scen1_1_3_11 - 12 s_hour_scen1_1_3_12 - 13 s_hour_scen1_1_3_13
 - 14 s_hour_scen1_1_3_14 - 15 s_hour_scen1_1_3_15 - 16 s_hour_scen1_1_3_16
 - 17 s_hour_scen1_1_3_17 - 18 s_hour_scen1_1_3_18 - 19 s_hour_scen1_1_3_19
 - 20 s_hour_scen1_1_3_20 - 21 s_hour_scen1_1_3_21 - s_hour_scen1_2_3_01
 - 2 s_hour_scen1_2_3_02 - 3 s_hour_scen1_2_3_03 - 4 s_hour_scen1_2_3_04
 - 5 s_hour_scen1_2_3_05 - 6 s_hour_scen1_2_3_06 - 7 s_hour_scen1_2_3_07
 - 8 s_hour_scen1_2_3_08 - 9 s_hour_scen1_2_3_09 - 10 s_hour_scen1_2_3_10
 - 11 s_hour_scen1_2_3_11 - 12 s_hour_scen1_2_3_12 - 13 s_hour_scen1_2_3_13
 - 14 s_hour_scen1_2_3_14 - 15 s_hour_scen1_2_3_15 - 16 s_hour_scen1_2_3_16
 - 17 s_hour_scen1_2_3_17 - 18 s_hour_scen1_2_3_18 - 19 s_hour_scen1_2_3_19
 - 20 s_hour_scen1_2_3_20 - 21 s_hour_scen1_2_3_21 + startingtime_(1,_3) = 0
sum(s_hour_0_0_scen0)==x_00: s_hour_scen0_0_0_00 + s_hour_scen0_0_0_01
 + s_hour_scen0_0_0_02 + s_hour_scen0_0_0_03 + s_hour_scen0_0_0_04
 + s_hour_scen0_0_0_05 + s_hour_scen0_0_0_06 + s_hour_scen0_0_0_07
 + s_hour_scen0_0_0_08 + s_hour_scen0_0_0_09 + s_hour_scen0_0_0_10
 + s_hour_scen0_0_0_11 + s_hour_scen0_0_0_12 + s_hour_scen0_0_0_13
 + s_hour_scen0_0_0_14 + s_hour_scen0_0_0_15 + s_hour_scen0_0_0_16
 + s_hour_scen0_0_0_17 + s_hour_scen0_0_0_18 + s_hour_scen0_0_0_19
 + s_hour_scen0_0_0_20 + s_hour_scen0_0_0_21 + s_hour_scen0_0_0_22
 - x_(0,_0,_0) = 0
sum(s_hour_0_0_scen1)==x_00: s_hour_scen1_0_0_00 + s_hour_scen1_0_0_01
 + s_hour_scen1_0_0_02 + s_hour_scen1_0_0_03 + s_hour_scen1_0_0_04
 + s_hour_scen1_0_0_05 + s_hour_scen1_0_0_06 + s_hour_scen1_0_0_07
 + s_hour_scen1_0_0_08 + s_hour_scen1_0_0_09 + s_hour_scen1_0_0_10
 + s_hour_scen1_0_0_11 + s_hour_scen1_0_0_12 + s_hour_scen1_0_0_13
 + s_hour_scen1_0_0_14 + s_hour_scen1_0_0_15 + s_hour_scen1_0_0_16
 + s_hour_scen1_0_0_17 + s_hour_scen1_0_0_18 + s_hour_scen1_0_0_19
 + s_hour_scen1_0_0_20 + s_hour_scen1_0_0_21 + s_hour_scen1_0_0_22
 - x_(1,_0,_0) = 0
sum(s_hour_0_1_scen0)==x_01: s_hour_scen0_0_1_00 + s_hour_scen0_0_1_01
 + s_hour_scen0_0_1_02 + s_hour_scen0_0_1_03 + s_hour_scen0_0_1_04
 + s_hour_scen0_0_1_05 + s_hour_scen0_0_1_06 + s_hour_scen0_0_1_07
 + s_hour_scen0_0_1_08 + s_hour_scen0_0_1_09 + s_hour_scen0_0_1_10
 + s_hour_scen0_0_1_11 + s_hour_scen0_0_1_12 + s_hour_scen0_0_1_13
 + s_hour_scen0_0_1_14 + s_hour_scen0_0_1_15 + s_hour_scen0_0_1_16
 + s_hour_scen0_0_1_17 + s_hour_scen0_0_1_18 + s_hour_scen0_0_1_19
 + s_hour_scen0_0_1_20 - x_(0,_0,_1) = 0
sum(s_hour_0_1_scen1)==x_01: s_hour_scen1_0_1_00 + s_hour_scen1_0_1_01
 + s_hour_scen1_0_1_02 + s_hour_scen1_0_1_03 + s_hour_scen1_0_1_04
 + s_hour_scen1_0_1_05 + s_hour_scen1_0_1_06 + s_hour_scen1_0_1_07
 + s_hour_scen1_0_1_08 + s_hour_scen1_0_1_09 + s_hour_scen1_0_1_10
 + s_hour_scen1_0_1_11 + s_hour_scen1_0_1_12 + s_hour_scen1_0_1_13
 + s_hour_scen1_0_1_14 + s_hour_scen1_0_1_15 + s_hour_scen1_0_1_16
 + s_hour_scen1_0_1_17 + s_hour_scen1_0_1_18 + s_hour_scen1_0_1_19
 + s_hour_scen1_0_1_20 - x_(1,_0,_1) = 0
sum(s_hour_1_2_scen0)==x_12: s_hour_scen0_1_2_00 + s_hour_scen0_1_2_01
 + s_hour_scen0_1_2_02 + s_hour_scen0_1_2_03 + s_hour_scen0_1_2_04
 + s_hour_scen0_1_2_05 + s_hour_scen0_1_2_06 + s_hour_scen0_1_2_07
 + s_hour_scen0_1_2_08 + s_hour_scen0_1_2_09 + s_hour_scen0_1_2_10
 + s_hour_scen0_1_2_11 + s_hour_scen0_1_2_12 + s_hour_scen0_1_2_13
 + s_hour_scen0_1_2_14 + s_hour_scen0_1_2_15 + s_hour_scen0_1_2_16
 + s_hour_scen0_1_2_17 + s_hour_scen0_1_2_18 + s_hour_scen0_1_2_19
 - x_(0,_1,_2) = 0
sum(s_hour_1_2_scen1)==x_12: s_hour_scen1_1_2_00 + s_hour_scen1_1_2_01
 + s_hour_scen1_1_2_02 + s_hour_scen1_1_2_03 + s_hour_scen1_1_2_04
 + s_hour_scen1_1_2_05 + s_hour_scen1_1_2_06 + s_hour_scen1_1_2_07
 + s_hour_scen1_1_2_08 + s_hour_scen1_1_2_09 + s_hour_scen1_1_2_10
 + s_hour_scen1_1_2_11 + s_hour_scen1_1_2_12 + s_hour_scen1_1_2_13
 + s_hour_scen1_1_2_14 + s_hour_scen1_1_2_15 + s_hour_scen1_1_2_16
 + s_hour_scen1_1_2_17 + s_hour_scen1_1_2_18 + s_hour_scen1_1_2_19
 - x_(1,_1,_2) = 0
sum(s_hour_1_3_scen0)==x_13: s_hour_scen0_1_3_00 + s_hour_scen0_1_3_01
 + s_hour_scen0_1_3_02 + s_hour_scen0_1_3_03 + s_hour_scen0_1_3_04
 + s_hour_scen0_1_3_05 + s_hour_scen0_1_3_06 + s_hour_scen0_1_3_07
 + s_hour_scen0_1_3_08 + s_hour_scen0_1_3_09 + s_hour_scen0_1_3_10
 + s_hour_scen0_1_3_11 + s_hour_scen0_1_3_12 + s_hour_scen0_1_3_13
 + s_hour_scen0_1_3_14 + s_hour_scen0_1_3_15 + s_hour_scen0_1_3_16
 + s_hour_scen0_1_3_17 + s_hour_scen0_1_3_18 + s_hour_scen0_1_3_19
 + s_hour_scen0_1_3_20 + s_hour_scen0_1_3_21 - x_(0,_1,_3) = 0
sum(s_hour_1_3_scen1)==x_13: s_hour_scen1_1_3_00 + s_hour_scen1_1_3_01
 + s_hour_scen1_1_3_02 + s_hour_scen1_1_3_03 + s_hour_scen1_1_3_04
 + s_hour_scen1_1_3_05 + s_hour_scen1_1_3_06 + s_hour_scen1_1_3_07
 + s_hour_scen1_1_3_08 + s_hour_scen1_1_3_09 + s_hour_scen1_1_3_10
 + s_hour_scen1_1_3_11 + s_hour_scen1_1_3_12 + s_hour_scen1_1_3_13
 + s_hour_scen1_1_3_14 + s_hour_scen1_1_3_15 + s_hour_scen1_1_3_16
 + s_hour_scen1_1_3_17 + s_hour_scen1_1_3_18 + s_hour_scen1_1_3_19
 + s_hour_scen1_1_3_20 + s_hour_scen1_1_3_21 - x_(1,_1,_3) = 0
sum(s_hour_2_2_scen0)==x_22: s_hour_scen0_2_2_00 + s_hour_scen0_2_2_01
 + s_hour_scen0_2_2_02 + s_hour_scen0_2_2_03 + s_hour_scen0_2_2_04
 + s_hour_scen0_2_2_05 + s_hour_scen0_2_2_06 + s_hour_scen0_2_2_07
 + s_hour_scen0_2_2_08 + s_hour_scen0_2_2_09 + s_hour_scen0_2_2_10
 + s_hour_scen0_2_2_11 + s_hour_scen0_2_2_12 + s_hour_scen0_2_2_13
 + s_hour_scen0_2_2_14 + s_hour_scen0_2_2_15 + s_hour_scen0_2_2_16
 + s_hour_scen0_2_2_17 + s_hour_scen0_2_2_18 + s_hour_scen0_2_2_19
 - x_(0,_2,_2) = 0
sum(s_hour_2_2_scen1)==x_22: s_hour_scen1_2_2_00 + s_hour_scen1_2_2_01
 + s_hour_scen1_2_2_02 + s_hour_scen1_2_2_03 + s_hour_scen1_2_2_04
 + s_hour_scen1_2_2_05 + s_hour_scen1_2_2_06 + s_hour_scen1_2_2_07
 + s_hour_scen1_2_2_08 + s_hour_scen1_2_2_09 + s_hour_scen1_2_2_10
 + s_hour_scen1_2_2_11 + s_hour_scen1_2_2_12 + s_hour_scen1_2_2_13
 + s_hour_scen1_2_2_14 + s_hour_scen1_2_2_15 + s_hour_scen1_2_2_16
 + s_hour_scen1_2_2_17 + s_hour_scen1_2_2_18 + s_hour_scen1_2_2_19
 - x_(1,_2,_2) = 0
sum(s_hour_2_3_scen0)==x_23: s_hour_scen0_2_3_00 + s_hour_scen0_2_3_01
 + s_hour_scen0_2_3_02 + s_hour_scen0_2_3_03 + s_hour_scen0_2_3_04
 + s_hour_scen0_2_3_05 + s_hour_scen0_2_3_06 + s_hour_scen0_2_3_07
 + s_hour_scen0_2_3_08 + s_hour_scen0_2_3_09 + s_hour_scen0_2_3_10
 + s_hour_scen0_2_3_11 + s_hour_scen0_2_3_12 + s_hour_scen0_2_3_13
 + s_hour_scen0_2_3_14 + s_hour_scen0_2_3_15 + s_hour_scen0_2_3_16
 + s_hour_scen0_2_3_17 + s_hour_scen0_2_3_18 + s_hour_scen0_2_3_19
 + s_hour_scen0_2_3_20 + s_hour_scen0_2_3_21 - x_(0,_2,_3) = 0
sum(s_hour_2_3_scen1)==x_23: s_hour_scen1_2_3_00 + s_hour_scen1_2_3_01
 + s_hour_scen1_2_3_02 + s_hour_scen1_2_3_03 + s_hour_scen1_2_3_04
 + s_hour_scen1_2_3_05 + s_hour_scen1_2_3_06 + s_hour_scen1_2_3_07
 + s_hour_scen1_2_3_08 + s_hour_scen1_2_3_09 + s_hour_scen1_2_3_10
 + s_hour_scen1_2_3_11 + s_hour_scen1_2_3_12 + s_hour_scen1_2_3_13
 + s_hour_scen1_2_3_14 + s_hour_scen1_2_3_15 + s_hour_scen1_2_3_16
 + s_hour_scen1_2_3_17 + s_hour_scen1_2_3_18 + s_hour_scen1_2_3_19
 + s_hour_scen1_2_3_20 + s_hour_scen1_2_3_21 - x_(1,_2,_3) = 0
sum(x_f0_scen0)<=1: x_(0,_0,_0) <= 1
sum(x_f0_scen1)<=1: x_(1,_0,_0) <= 1
sum(x_f1_scen0)<=1: x_(0,_0,_1) <= 1
sum(x_f1_scen1)<=1: x_(1,_0,_1) <= 1
sum(x_f2_scen0)<=1: x_(0,_1,_2) + x_(0,_2,_2) <= 1
sum(x_f2_scen1)<=1: x_(1,_1,_2) + x_(1,_2,_2) <= 1
sum(x_f3_scen0)<=1: x_(0,_1,_3) + x_(0,_2,_3) <= 1
sum(x_f3_scen1)<=1: x_(1,_1,_3) + x_(1,_2,_3) <= 1
Bounds
 0 <= startingtime_(0,_0) <= 23
 0 <= startingtime_(0,_1) <= 23
 0 <= startingtime_(0,_2) <= 23
 0 <= startingtime_(0,_3) <= 23
 0 <= startingtime_(1,_0) <= 23
 0 <= startingtime_(1,_1) <= 23
 0 <= startingtime_(1,_2) <= 23
 0 <= startingtime_(1,_3) <= 23
Generals
startingtime_(0,_0)
startingtime_(0,_1)
startingtime_(0,_2)
startingtime_(0,_3)
startingtime_(1,_0)
startingtime_(1,_1)
startingtime_(1,_2)
startingtime_(1,_3)
Binaries
p_(0,_0,_0,_1)
p_(0,_0,_1,_0)
p_(0,_1,_2,_3)
p_(0,_1,_3,_2)
p_(0,_2,_2,_3)
p_(0,_2,_3,_2)
p_(1,_0,_0,_1)
p_(1,_0,_1,_0)
p_(1,_1,_2,_3)
p_(1,_1,_3,_2)
p_(1,_2,_2,_3)
p_(1,_2,_3,_2)
q_(0,_0,_0,_1)
q_(0,_0,_1,_0)
q_(0,_1,_2,_3)
q_(0,_1,_3,_2)
q_(0,_2,_2,_3)
q_(0,_2,_3,_2)
q_(1,_0,_0,_1)
q_(1,_0,_1,_0)
q_(1,_1,_2,_3)
q_(1,_1,_3,_2)
q_(1,_2,_2,_3)
q_(1,_2,_3,_2)
s_hour_scen0_0_0_00
s_hour_scen0_0_0_01
s_hour_scen0_0_0_02
s_hour_scen0_0_0_03
s_hour_scen0_0_0_04
s_hour_scen0_0_0_05
s_hour_scen0_0_0_06
s_hour_scen0_0_0_07
s_hour_scen0_0_0_08
s_hour_scen0_0_0_09
s_hour_scen0_0_0_10
s_hour_scen0_0_0_11
s_hour_scen0_0_0_12
s_hour_scen0_0_0_13
s_hour_scen0_0_0_14
s_hour_scen0_0_0_15
s_hour_scen0_0_0_16
s_hour_scen0_0_0_17
s_hour_scen0_0_0_18
s_hour_scen0_0_0_19
s_hour_scen0_0_0_20
s_hour_scen0_0_0_21
s_hour_scen0_0_0_22
s_hour_scen0_0_1_00
s_hour_scen0_0_1_01
s_hour_scen0_0_1_02
s_hour_scen0_0_1_03
s_hour_scen0_0_1_04
s_hour_scen0_0_1_05
s_hour_scen0_0_1_06
s_hour_scen0_0_1_07
s_hour_scen0_0_1_08
s_hour_scen0_0_1_09
s_hour_scen0_0_1_10
s_hour_scen0_0_1_11
s_hour_scen0_0_1_12
s_hour_scen0_0_1_13
s_hour_scen0_0_1_14
s_hour_scen0_0_1_15
s_hour_scen0_0_1_16
s_hour_scen0_0_1_17
s_hour_scen0_0_1_18
s_hour_scen0_0_1_19
s_hour_scen0_0_1_20
s_hour_scen0_1_2_00
s_hour_scen0_1_2_01
s_hour_scen0_1_2_02
s_hour_scen0_1_2_03
s_hour_scen0_1_2_04
s_hour_scen0_1_2_05
s_hour_scen0_1_2_06
s_hour_scen0_1_2_07
s_hour_scen0_1_2_08
s_hour_scen0_1_2_09
s_hour_scen0_1_2_10
s_hour_scen0_1_2_11
s_hour_scen0_1_2_12
s_hour_scen0_1_2_13
s_hour_scen0_1_2_14
s_hour_scen0_1_2_15
s_hour_scen0_1_2_16
s_hour_scen0_1_2_17
s_hour_scen0_1_2_18
s_hour_scen0_1_2_19
s_hour_scen0_1_3_00
s_hour_scen0_1_3_01
s_hour_scen0_1_3_02
s_hour_scen0_1_3_03
s_hour_scen0_1_3_04
s_hour_scen0_1_3_05
s_hour_scen0_1_3_06
s_hour_scen0_1_3_07
s_hour_scen0_1_3_08
s_hour_scen0_1_3_09
s_hour_scen0_1_3_10
s_hour_scen0_1_3_11
s_hour_scen0_1_3_12
s_hour_scen0_1_3_13
s_hour_scen0_1_3_14
s_hour_scen0_1_3_15
s_hour_scen0_1_3_16
s_hour_scen0_1_3_17
s_hour_scen0_1_3_18
s_hour_scen0_1_3_19
s_hour_scen0_1_3_20
s_hour_scen0_1_3_21
s_hour_scen0_2_2_00
s_hour_scen0_2_2_01
s_hour_scen0_2_2_02
s_hour_scen0_2_2_03
s_hour_scen0_2_2_04
s_hour_scen0_2_2_05
s_hour_scen0_2_2_06
s_hour_scen0_2_2_07
s_hour_scen0_2_2_08
s_hour_scen0_2_2_09
s_hour_scen0_2_2_10
s_hour_scen0_2_2_11
s_hour_scen0_2_2_12
s_hour_scen0_2_2_13
s_hour_scen0_2_2_14
s_hour_scen0_2_2_15
s_hour_scen0_2_2_16
s_hour_scen0_2_2_17
s_hour_scen0_2_2_18
s_hour_scen0_2_2_19
s_hour_scen0_2_3_00
s_hour_scen0_2_3_01
s_hour_scen0_2_3_02
s_hour_scen0_2_3_03
s_hour_scen0_2_3_04
s_hour_scen0_2_3_05
s_hour_scen0_2_3_06
s_hour_scen0_2_3_07
s_hour_scen0_2_3_08
s_hour_scen0_2_3_09
s_hour_scen0_2_3_10
s_hour_scen0_2_3_11
s_hour_scen0_2_3_12
s_hour_scen0_2_3_13
s_hour_scen0_2_3_14
s_hour_scen0_2_3_15
s_hour_scen0_2_3_16
s_hour_scen0_2_3_17
s_hour_scen0_2_3_18
s_hour_scen0_2_3_19
s_hour_scen0_2_3_20
s_hour_scen0_2_3_21
s_hour_scen1_0_0_00
s_hour_scen1_0_0_01
s_hour_scen1_0_0_02
s_hour_scen1_0_0_03
s_hour_scen1_0_0_04
s_hour_scen1_0_0_05
s_hour_scen1_0_0_06
s_hour_scen1_0_0_07
s_hour_scen1_0_0_08
s_hour_scen1_0_0_09
s_hour_scen1_0_0_10
s_hour_scen1_0_0_11
s_hour_scen1_0_0_12
s_hour_scen1_0_0_13
s_hour_scen1_0_0_14
s_hour_scen1_0_0_15
s_hour_scen1_0_0_16
s_hour_scen1_0_0_17
s_hour_scen1_0_0_18
s_hour_scen1_0_0_19
s_hour_scen1_0_0_20
s_hour_scen1_0_0_21
s_hour_scen1_0_0_22
s_hour_scen1_0_1_00
s_hour_scen1_0_1_01
s_hour_scen1_0_1_02
s_hour_scen1_0_1_03
s_hour_scen1_0_1_04
s_hour_scen1_0_1_05
s_hour_scen1_0_1_06
s_hour_scen1_0_1_07
s_hour_scen1_0_1_08
s_hour_scen1_0_1_09
s_hour_scen1_0_1_10
s_hour_scen1_0_1_11
s_hour_scen1_0_1_12
s_hour_scen1_0_1_13
s_hour_scen1_0_1_14
s_hour_scen1_0_1_15
s_hour_scen1_0_1_16
s_hour_scen1_0_1_17
s_hour_scen1_0_1_18
s_hour_scen1_0_1_19
s_hour_scen1_0_1_20
s_hour_scen1_1_2_00
s_hour_scen1_1_2_01
s_hour_scen1_1_2_02
s_hour_scen1_1_2_03
s_hour_scen1_1_2_04
s_hour_scen1_1_2_05
s_hour_scen1_1_2_06
s_hour_scen1_1_2_07
s_hour_scen1_1_2_08
s_hour_scen1_1_2_09
s_hour_scen1_1_2_10
s_hour_scen1_1_2_11
s_hour_scen1_1_2_12
s_hour_scen1_1_2_13
s_hour_scen1_1_2_14
s_hour_scen1_1_2_15
s_hour_scen1_1_2_16
s_hour_scen1_1_2_17
s_hour_scen1_1_2_18
s_hour_scen1_1_2_19
s_hour_scen1_1_3_00
s_hour_scen1_1_3_01
s_hour_scen1_1_3_02
s_hour_scen1_1_3_03
s_hour_scen1_1_3_04
s_hour_scen1_1_3_05
s_hour_scen1_1_3_06
s_hour_scen1_1_3_07
s_hour_scen1_1_3_08
s_hour_scen1_1_3_09
s_hour_scen1_1_3_10
s_hour_scen1_1_3_11
s_hour_scen1_1_3_12
s_hour_scen1_1_3_13
s_hour_scen1_1_3_14
s_hour_scen1_1_3_15
s_hour_scen1_1_3_16
s_hour_scen1_1_3_17
s_hour_scen1_1_3_18
s_hour_scen1_1_3_19
s_hour_scen1_1_3_20
s_hour_scen1_1_3_21
s_hour_scen1_2_2_00
s_hour_scen1_2_2_01
s_hour_scen1_2_2_02
s_hour_scen1_2_2_03
s_hour_scen1_2_2_04
s_hour_scen1_2_2_05
s_hour_scen1_2_2_06
s_hour_scen1_2_2_07
s_hour_scen1_2_2_08
s_hour_scen1_2_2_09
s_hour_scen1_2_2_10
s_hour_scen1_2_2_11
s_hour_scen1_2_2_12
s_hour_scen1_2_2_13
s_hour_scen1_2_2_14
s_hour_scen1_2_2_15
s_hour_scen1_2_2_16
s_hour_scen1_2_2_17
s_hour_scen1_2_2_18
s_hour_scen1_2_2_19
s_hour_scen1_2_3_00
s_hour_scen1_2_3_01
s_hour_scen1_2_3_02
s_hour_scen1_2_3_03
s_hour_scen1_2_3_04
s_hour_scen1_2_3_05
s_hour_scen1_2_3_06
s_hour_scen1_2_3_07
s_hour_scen1_2_3_08
s_hour_scen1_2_3_09
s_hour_scen1_2_3_10
s_hour_scen1_2_3_11
s_hour_scen1_2_3_12
s_hour_scen1_2_3_13
s_hour_scen1_2_3_14
s_hour_scen1_2_3_15
s_hour_scen1_2_3_16
s_hour_scen1_2_3_17
s_hour_scen1_2_3_18
s_hour_scen1_2_3_19
s_hour_scen1_2_3_20
s_hour_scen1_2_3_21
x_(0,_0,_0)
x_(0,_0,_1)
x_(0,_1,_2)
x_(0,_1,_3)
x_(0,_2,_2)
x_(0,_2,_3)
x_(1,_0,_0)
x_(1,_0,_1)
x_(1,_1,_2)
x_(1,_1,_3)
x_(1,_2,_2)
x_(1,_2,_3)
End
